Minimize
	value: tt

Subject to
tt + 2000 s_1_1 > 0
tt - t_1_1 - 2000.000000 s_1_1 > -1981.019100
tt + 2000 s_2_1 > 0
tt - t_2_1 - 2000.000000 s_2_1 > -1988.497967
tt + 2000 s_1_2 > 0
tt - t_1_2 - 2000.000000 s_1_2 > -1968.371400
tt + 2000 s_2_2 > 0
tt - t_2_2 - 2000.000000 s_2_2 > -1981.063422
tt + 2000 s_1_3 > 0
tt - t_1_3 - 2000.000000 s_1_3 > -1996.268000
tt + 2000 s_2_3 > 0
tt - t_2_3 - 2000.000000 s_2_3 > -1996.888322
tt + 2000 s_1_4 > 0
tt - t_1_4 - 2000.000000 s_1_4 > -1992.114500
tt + 2000 s_2_4 > 0
tt - t_2_4 - 2000.000000 s_2_4 > -1995.502800
tt + 2000 s_1_5 > 0
tt - t_1_5 - 2048.000000 s_1_5 + 48.000000 s_1_3 > -1999.805111
tt + 2000 s_2_5 > 0
tt - t_2_5 - 2048.000000 s_2_5 + 48.000000 s_2_3 > -1999.009375
s_1_1 + s_2_1  = 1
s_1_2 + s_2_2  = 1
s_1_3 + s_2_3  = 1
s_1_4 + s_2_4  = 1
s_1_5 + s_2_5  = 1
t_1_1 - t_1_2 + 2000.000000 u_1_1_2 > 31.628600
t_1_2 - t_1_1 - 2000.000000 u_1_1_2 > -1981.019100
t_2_1 - t_2_2 + 2000.000000 u_2_1_2 > 18.936578
t_2_2 - t_2_1 - 2000.000000 u_2_1_2 > -1988.497967
t_1_1 - t_1_3 + 2000.000000 u_1_1_3 > 3.732000
t_1_3 - t_1_1 - 2000.000000 u_1_1_3 > -1981.019100
t_2_1 - t_2_3 + 2000.000000 u_2_1_3 > 3.111678
t_2_3 - t_2_1 - 2000.000000 u_2_1_3 > -1988.497967
t_1_1 - t_1_4 + 2000.000000 u_1_1_4 > 7.885500
t_1_4 - t_1_1 - 2000.000000 u_1_1_4 > -1981.019100
t_2_1 - t_2_4 + 2000.000000 u_2_1_4 > 4.497200
t_2_4 - t_2_1 - 2000.000000 u_2_1_4 > -1988.497967
t_1_5 - t_1_1 - 2000.000000 s_1_1 > -1977.378230
t_1_5 - t_2_1 - 2000.000000 s_2_1 > -1982.842977
t_2_5 - t_1_1 - 2000.000000 s_1_1 > -1977.378230
t_2_5 - t_2_1 - 2000.000000 s_2_1 > -1982.842977
t_1_2 - t_1_1 + 2000.000000 u_1_2_1 > 18.980900
t_1_1 - t_1_2 - 2000.000000 u_1_2_1 > -1968.371400
t_2_2 - t_2_1 + 2000.000000 u_2_2_1 > 11.502033
t_2_1 - t_2_2 - 2000.000000 u_2_2_1 > -1981.063422
t_1_2 - t_1_3 + 2000.000000 u_1_2_3 > 3.732000
t_1_3 - t_1_2 - 2000.000000 u_1_2_3 > -1968.371400
t_2_2 - t_2_3 + 2000.000000 u_2_2_3 > 3.111678
t_2_3 - t_2_2 - 2000.000000 u_2_2_3 > -1981.063422
t_1_2 - t_1_4 + 2000.000000 u_1_2_4 > 7.885500
t_1_4 - t_1_2 - 2000.000000 u_1_2_4 > -1968.371400
t_2_2 - t_2_4 + 2000.000000 u_2_2_4 > 4.497200
t_2_4 - t_2_2 - 2000.000000 u_2_2_4 > -1981.063422
t_1_5 - t_1_2 - 2000.000000 s_1_2 > -1964.730530
t_1_5 - t_2_2 - 2000.000000 s_2_2 > -1975.408432
t_2_5 - t_1_2 - 2000.000000 s_1_2 > -1964.730530
t_2_5 - t_2_2 - 2000.000000 s_2_2 > -1975.408432
t_1_3 - t_1_1 + 2000.000000 u_1_3_1 > 18.980900
t_1_1 - t_1_3 - 2000.000000 u_1_3_1 > -1996.268000
t_2_3 - t_2_1 + 2000.000000 u_2_3_1 > 11.502033
t_2_1 - t_2_3 - 2000.000000 u_2_3_1 > -1996.888322
t_1_3 - t_1_2 + 2000.000000 u_1_3_2 > 31.628600
t_1_2 - t_1_3 - 2000.000000 u_1_3_2 > -1996.268000
t_2_3 - t_2_2 + 2000.000000 u_2_3_2 > 18.936578
t_2_2 - t_2_3 - 2000.000000 u_2_3_2 > -1996.888322
t_1_3 - t_1_4 + 2000.000000 u_1_3_4 > 7.885500
t_1_4 - t_1_3 - 2000.000000 u_1_3_4 > -1996.268000
t_2_3 - t_2_4 + 2000.000000 u_2_3_4 > 4.497200
t_2_4 - t_2_3 - 2000.000000 u_2_3_4 > -1996.888322
t_1_5 - t_1_3 - 2000.000000 s_1_3 > -1992.627130
t_1_5 - t_2_3 - 2000.000000 s_2_3 > -1991.233332
t_2_5 - t_1_3 - 2000.000000 s_1_3 > -1992.627130
t_2_5 - t_2_3 - 2000.000000 s_2_3 > -1991.233332
t_1_4 - t_1_1 + 2000.000000 u_1_4_1 > 18.980900
t_1_1 - t_1_4 - 2000.000000 u_1_4_1 > -1992.114500
t_2_4 - t_2_1 + 2000.000000 u_2_4_1 > 11.502033
t_2_1 - t_2_4 - 2000.000000 u_2_4_1 > -1995.502800
t_1_4 - t_1_2 + 2000.000000 u_1_4_2 > 31.628600
t_1_2 - t_1_4 - 2000.000000 u_1_4_2 > -1992.114500
t_2_4 - t_2_2 + 2000.000000 u_2_4_2 > 18.936578
t_2_2 - t_2_4 - 2000.000000 u_2_4_2 > -1995.502800
t_1_4 - t_1_3 + 2000.000000 u_1_4_3 > 3.732000
t_1_3 - t_1_4 - 2000.000000 u_1_4_3 > -1992.114500
t_2_4 - t_2_3 + 2000.000000 u_2_4_3 > 3.111678
t_2_3 - t_2_4 - 2000.000000 u_2_4_3 > -1995.502800
t_1_5 - t_1_4 - 2000.000000 s_1_4 > -1988.473630
t_1_5 - t_2_4 - 2000.000000 s_2_4 > -1989.847810
t_2_5 - t_1_4 - 2000.000000 s_1_4 > -1988.473630
t_2_5 - t_2_4 - 2000.000000 s_2_4 > -1989.847810
t_1_5 - t_1_1 - 2000.000000 s_1_1 > -1977.378230
t_1_5 - t_2_1 - 2000.000000 s_2_1 > -1982.842977
t_2_5 - t_1_1 - 2000.000000 s_1_1 > -1977.378230
t_2_5 - t_2_1 - 2000.000000 s_2_1 > -1982.842977
t_1_5 - t_1_2 - 2000.000000 s_1_2 > -1964.730530
t_1_5 - t_2_2 - 2000.000000 s_2_2 > -1975.408432
t_2_5 - t_1_2 - 2000.000000 s_1_2 > -1964.730530
t_2_5 - t_2_2 - 2000.000000 s_2_2 > -1975.408432
t_1_5 - t_1_3 - 2000.000000 s_1_3 > -1992.627130
t_1_5 - t_2_3 - 2000.000000 s_2_3 > -1991.233332
t_2_5 - t_1_3 - 2000.000000 s_1_3 > -1992.627130
t_2_5 - t_2_3 - 2000.000000 s_2_3 > -1991.233332
t_1_5 - t_1_4 - 2000.000000 s_1_4 > -1988.473630
t_1_5 - t_2_4 - 2000.000000 s_2_4 > -1989.847810
t_2_5 - t_1_4 - 2000.000000 s_1_4 > -1988.473630
t_2_5 - t_2_4 - 2000.000000 s_2_4 > -1989.847810
Binary
s_1_1
s_2_1
s_1_2
s_2_2
s_1_3
s_2_3
s_1_4
s_2_4
s_1_5
s_2_5
u_1_1_2
u_2_1_2
u_1_1_3
u_2_1_3
u_1_1_4
u_2_1_4
u_1_2_1
u_2_2_1
u_1_2_3
u_2_2_3
u_1_2_4
u_2_2_4
u_1_3_1
u_2_3_1
u_1_3_2
u_2_3_2
u_1_3_4
u_2_3_4
u_1_4_1
u_2_4_1
u_1_4_2
u_2_4_2
u_1_4_3
u_2_4_3

End
